Version identifier: 22.1.1.0 | 2022-11-28 | 9160aff4d
CPXPARAM_TimeLimit                               3600
Tried aggregator 1 time.
MIP Presolve eliminated 73 rows and 24 columns.
Reduced MIP has 8627 rows, 2649 columns, and 25781 nonzeros.
Reduced MIP has 2649 binaries, 0 generals, 0 SOSs, and 0 indicators.
Presolve time = 0.02 sec. (16.61 ticks)
Found incumbent of value 6770129.000000 after 0.03 sec. (20.52 ticks)
Probing time = 0.01 sec. (3.94 ticks)
Tried aggregator 1 time.
Detecting symmetries...
Reduced MIP has 8627 rows, 2649 columns, and 25781 nonzeros.
Reduced MIP has 2649 binaries, 0 generals, 0 SOSs, and 0 indicators.
Presolve time = 0.03 sec. (19.36 ticks)
Probing time = 0.01 sec. (3.94 ticks)
Clique table members: 2477.
MIP emphasis: balance optimality and feasibility.
MIP search method: dynamic search.
Parallel mode: deterministic, using up to 8 threads.
Root relaxation solution time = 0.02 sec. (13.94 ticks)

        Nodes                                         Cuts/
   Node  Left     Objective  IInf  Best Integer    Best Bound    ItCnt     Gap

*     0+    0                      6770129.0000        0.0000           100.00%
*     0+    0                      4016029.0000        0.0000           100.00%
*     0+    0                       911228.0000        0.0000           100.00%
*     0+    0                       569443.0000        0.0000           100.00%
      0     0    93774.0000   100   569443.0000    93774.0000      161   83.53%
*     0+    0                       236704.0000    93774.0000            60.38%
      0     0   106217.5000   100   236704.0000     Cuts: 312      262   55.13%
      0     0   118574.0000    96   236704.0000     Cuts: 312      404   49.91%
      0     0   126522.6154   214   236704.0000  ZeroHalf: 79      616   46.55%
*     0+    0                       158413.0000   126522.6154            20.13%
      0     0   130434.6129   207   158413.0000 ZeroHalf: 106      796   17.66%
*     0+    0                       158021.0000   130434.6129            17.46%
*     0+    0                       149230.0000   130434.6129            12.59%
      0     0  -1.00000e+75     0   149230.0000   130434.6129      796   12.59%
Detecting symmetries...

Repeating presolve.
Tried aggregator 1 time.
MIP Presolve eliminated 7555 rows and 2113 columns.
MIP Presolve modified 797 coefficients.
Reduced MIP has 1072 rows, 536 columns, and 3621 nonzeros.
Reduced MIP has 536 binaries, 0 generals, 0 SOSs, and 0 indicators.
Presolve time = 0.01 sec. (7.05 ticks)
Probing time = 0.00 sec. (0.70 ticks)
Tried aggregator 1 time.
Detecting symmetries...
Reduced MIP has 1072 rows, 536 columns, and 3621 nonzeros.
Reduced MIP has 536 binaries, 0 generals, 0 SOSs, and 0 indicators.
Presolve time = 0.00 sec. (4.04 ticks)
Represolve time = 0.02 sec. (21.70 ticks)
Probing time = 0.00 sec. (0.70 ticks)
Clique table members: 904.
MIP emphasis: balance optimality and feasibility.
MIP search method: dynamic search.
Parallel mode: deterministic, using up to 8 threads.
Root relaxation solution time = 0.02 sec. (19.33 ticks)

        Nodes                                         Cuts/
   Node  Left     Objective  IInf  Best Integer    Best Bound    ItCnt     Gap

*     0+    0                       149230.0000   131764.9868            11.70%
      0     0   141487.5000    88   149230.0000   141487.5000     1288    5.19%
      0     0   142580.9553   145   149230.0000      Cuts: 47     1373    4.46%
      0     0   143243.3690   146   149230.0000      Cuts: 80     1445    4.01%
      0     0   143599.5783   147   149230.0000      Cuts: 78     1516    3.77%
      0     0   143689.8885   147   149230.0000      Cuts: 38     1565    3.71%
      0     0   143724.3701   154   149230.0000      Cuts: 20     1598    3.69%
Detecting symmetries...
      0     0   143751.2873   153   149230.0000      Cuts: 12     1638    3.67%
      0     0   143772.5504   153   149230.0000   ZeroHalf: 4     1657    3.66%
      0     0   143821.0188   154   149230.0000   ZeroHalf: 7     1703    3.62%
      0     0   143834.0153   150   149230.0000       Cuts: 8     1741    3.62%
      0     0   143844.3709   153   149230.0000       Cuts: 7     1767    3.61%
*     0+    0                       146777.0000   143844.3709             2.00%
      0     0        cutoff         146777.0000   146777.0000     1789    0.00%
Elapsed time = 0.86 sec. (553.19 ticks, tree = 0.01 MB, solutions = 9)

Implied bound cuts applied:  27
Zero-half cuts applied:  46

Root node processing (before b&c):
  Real time             =    0.86 sec. (553.43 ticks)
Parallel b&c, 8 threads:
  Real time             =    0.00 sec. (0.00 ticks)
  Sync time (average)   =    0.00 sec.
  Wait time (average)   =    0.00 sec.
                          ------------
Total (root+branch&cut) =    0.86 sec. (553.43 ticks)
Status: Optimal
Obj: 146777

Instalacoes abertas:
Instalação 4 aberta
Instalação 9 aberta
Instalação 20 aberta
Instalação 22 aberta

Atribuições (cliente -> instalação):
Cliente 0 -> Instalação 20
Cliente 1 -> Instalação 20
Cliente 2 -> Instalação 20
Cliente 3 -> Instalação 9
Cliente 4 -> Instalação 4
Cliente 5 -> Instalação 9
Cliente 6 -> Instalação 9
Cliente 7 -> Instalação 4
Cliente 8 -> Instalação 9
Cliente 9 -> Instalação 9
Cliente 10 -> Instalação 4
Cliente 11 -> Instalação 9
Cliente 12 -> Instalação 20
Cliente 13 -> Instalação 9
Cliente 14 -> Instalação 9
Cliente 15 -> Instalação 4
Cliente 16 -> Instalação 9
Cliente 17 -> Instalação 9
Cliente 18 -> Instalação 20
Cliente 19 -> Instalação 9
Cliente 20 -> Instalação 20
Cliente 21 -> Instalação 4
Cliente 22 -> Instalação 22
Cliente 23 -> Instalação 20
Cliente 24 -> Instalação 4
Cliente 25 -> Instalação 4
Cliente 26 -> Instalação 20
Cliente 27 -> Instalação 22
Cliente 28 -> Instalação 9
Cliente 29 -> Instalação 20
Cliente 30 -> Instalação 9
Cliente 31 -> Instalação 4
Cliente 32 -> Instalação 9
Cliente 33 -> Instalação 20
Cliente 34 -> Instalação 4
Cliente 35 -> Instalação 9
Cliente 36 -> Instalação 20
Cliente 37 -> Instalação 20
Cliente 38 -> Instalação 9
Cliente 39 -> Instalação 20
Cliente 40 -> Instalação 20
Cliente 41 -> Instalação 4
Cliente 42 -> Instalação 4
Cliente 43 -> Instalação 20
Cliente 44 -> Instalação 4
Cliente 45 -> Instalação 9
Cliente 46 -> Instalação 4
Cliente 47 -> Instalação 20
Cliente 48 -> Instalação 4
Cliente 49 -> Instalação 9
